glpk/models/path5.lp
\* Problem: Path 5 - EgoTrip *\

Minimize
 z: + 9 x13 + 12 x14 + 20 x15 + 29 x16 + 14 x23 + 13 x24 + 22 x25
 + 27 x26 + 5 x34 + 18 x35 + 18 x36 + 7 x43 + 16 x45 + 17 x46

Subject To
 c1: - x16 - x15 - x14 - x13 >= -150
 c2: - x26 - x25 - x24 - x23 >= -200
 c3: + x43 - x36 - x35 - x34 + x23 + x13 >= 0
 c4: - x46 - x45 - x43 + x34 + x24 + x14 >= 0
 c5: + x45 + x35 + x25 + x15 >= 130
 c6: + x46 + x36 + x26 + x16 >= 130

Generals
 x13
 x14
 x15
 x16
 x23
 x24
 x25
 x26
 x34
 x35
 x36
 x43
 x45
 x46

End
