glpk/solutions/path5.sol
Path 5 - EgoTrip
z = 6110.0
x13 = 0.0
x14 = 0.0
x15 = 130.0
x16 = 0.0
x23 = 0.0
x24 = 0.0
x25 = 0.0
x26 = 130.0
x34 = 0.0
x35 = 0.0
x36 = 0.0
x43 = 0.0
x45 = 0.0
x46 = 0.0
